36679
111011111001011011110000100110
18 17 2 27 2 28 0 28 24 17 4 28 13 1 28 7 13 8 27 27 18 16 5 14 8 18 27 28 4 2 19 4 4 16 27 6 19 8 16 16 7 6 6 6 13 19 8 2 19 14 24 16 0 16 8 7 11 8 18 7 4 24 7 0 1 18 5 14 28 11 7 6 19 13 5 13 13 0 14 16 5 17 4 11 6 19 4 5 18 7 28 6 6 7 2 13 14 6 0 28 28 2 11 18 4 17 4 24 18 13 17 4 27 19 6 8 28 7 14 8 14 18 17 19 4 16 2 6 19 0 27 16 7 13 5 8 1 17 28 0 11 27 6 7 7 5 27 16 27 7 24 17 1 27 13 11 2 16 1 13 13 0 5 24 2 27 8 4 1 18 1 13 13 14 19 2 0 14 4 17 0 16 17 28 17 4 28 13 0 16 2 16 19 4 18 11 7 2 14 19 